language ESSENCE' 1.0
letting values be [[0, 6, 4, 3, 7, 0, 2, 1, 9], [7, 0, 8, 2, 4, 9, 3, 0, 5], [2, 0, 0, 1, 0, 5, 7, 4, 8], [0, 7, 0, 8, 0, 0, 5, 0, 4], [1, 9, 2, 0, 0, 4, 8, 0, 6], [8, 4, 0, 0, 9, 0, 0, 3, 2], [0, 5, 0, 0, 2, 0, 0, 0, 7], [4, 0, 0, 9, 8, 7, 6, 0, 3], [9, 8, 0, 6, 0, 0, 4, 2, 1]]